NAME : E076-14u.1024691.tour
COMMENT : Length = 1024691
COMMENT : Found by LKH [Keld Helsgaun] Tue May  8 13:50:37 2018
TYPE : TOUR
DIMENSION : 89
TOUR_SECTION
1
33
51
19
56
26
40
78
27
13
10
41
87
59
39
11
32
73
88
46
30
6
38
37
48
85
17
50
25
4
45
18
81
8
12
67
66
86
34
2
57
24
64
52
83
75
22
62
29
63
77
74
44
42
43
65
23
69
80
54
60
15
36
79
5
31
3
7
82
49
70
72
61
71
21
16
58
84
9
20
55
14
28
53
89
76
35
47
68
-1
EOF
